Traveling Salesman Problem/TSP_generados/Aleatorio1620394939_17.tsp
NAME: Aleatorio1620394939_17.tsp
COMMENT: Randomly generated scenario
TYPE: TSP
DIMENSION: 17
EDGE_WEIGHT_TYPE: ATT
NODE_COORD_SECTION
1 46.69 9.11
2 28.88 34.9
3 27.07 44.24
4 11.04 31.9
5 30.99 34.6
6 0.01 6.56
7 22.32 46.31
8 37.38 45.07
9 20.02 8.94
10 36.56 46.18
11 7.94 7.62
12 3.03 43.75
13 30.55 4.53
14 45.33 17.04
15 10.23 19.56
16 43.57 8.54
17 10.31 24.24
