Traveling Salesman Problem/TSP_generados/Aleatorio1620394939_17.opt.tour
NAME: Aleatorio1620394939_17.opt.tour
COMMENT: Optimal solution for Aleatorio1620394939_17 (173.38827249608505)
TYPE: TOUR
DIMENSION: 17
TOUR_SECTION
1 14 5 2 8 10 3 7 12 4 17 15 6 11 9 13 16
-1
EOF
